(declare-fun temp1401_1 () (_ BitVec 64))
(declare-fun temp1401_2 () (_ BitVec 64))
(declare-fun var1380394 () (_ BitVec 64))
(declare-fun k!0 () Bool)
(declare-fun ARGNAME_input_NAMEEND_DIM () (_ BitVec 64))
(declare-fun temp1401_3 () (_ BitVec 64))
(declare-fun var1380420 () (_ BitVec 64))
(declare-fun temp1401_4 () (_ BitVec 64))
(declare-fun temp1401_6 () (_ BitVec 64))
(declare-fun temp1401_5 () (_ BitVec 64))
(declare-fun temp1401_7 () (_ BitVec 64))
(declare-fun var1970486 () (_ BitVec 64))
(declare-fun var2036033 () (_ BitVec 64))
(declare-fun temp1401_9 () (_ BitVec 64))
(declare-fun temp1401_8 () (_ BitVec 64))
(declare-fun temp1401_10 () (_ BitVec 64))
(declare-fun var2887990 () (_ BitVec 64))
(declare-fun var2953537 () (_ BitVec 64))
(declare-fun temp1401_12 () (_ BitVec 64))
(declare-fun temp1401_11 () (_ BitVec 64))
(declare-fun temp1401_13 () (_ BitVec 64))
(declare-fun var3608886 () (_ BitVec 64))
(declare-fun var3674433 () (_ BitVec 64))
(declare-fun temp1401_14 () (_ BitVec 64))
(declare-fun var2690916 () (_ BitVec 64))
(declare-fun temp1401_16 () (_ BitVec 64))
(declare-fun temp1401_15 () (_ BitVec 64))
(declare-fun temp1401_18 () (_ BitVec 64))
(declare-fun temp1401_17 () (_ BitVec 64))
(declare-fun temp1401_20 () (_ BitVec 64))
(declare-fun temp1401_19 () (_ BitVec 64))
(declare-fun temp1401_22 () (_ BitVec 64))
(declare-fun temp1401_21 () (_ BitVec 64))
(declare-fun temp1401_24 () (_ BitVec 64))
(declare-fun temp1401_23 () (_ BitVec 64))
(declare-fun temp1401_26 () (_ BitVec 64))
(declare-fun temp1401_25 () (_ BitVec 64))
(declare-fun temp1401_28 () (_ BitVec 64))
(declare-fun temp1401_27 () (_ BitVec 64))
(declare-fun temp1401_30 () (_ BitVec 64))
(declare-fun temp1401_29 () (_ BitVec 64))
(declare-fun temp1401_32 () (_ BitVec 64))
(declare-fun temp1401_31 () (_ BitVec 64))
(declare-fun temp1401_34 () (_ BitVec 64))
(declare-fun temp1401_33 () (_ BitVec 64))
(declare-fun temp1401_35 () (_ BitVec 64))
(declare-fun var2694149 () (_ BitVec 64))
(declare-fun temp1401_37 () (_ BitVec 64))
(declare-fun temp1401_36 () (_ BitVec 64))
(declare-fun temp1401_39 () (_ BitVec 64))
(declare-fun temp1401_38 () (_ BitVec 64))
(declare-fun temp1401_41 () (_ BitVec 64))
(declare-fun temp1401_40 () (_ BitVec 64))
(declare-fun temp1401_43 () (_ BitVec 64))
(declare-fun temp1401_42 () (_ BitVec 64))
(declare-fun temp1401_45 () (_ BitVec 64))
(declare-fun temp1401_44 () (_ BitVec 64))
(declare-fun temp1401_47 () (_ BitVec 64))
(declare-fun temp1401_46 () (_ BitVec 64))
(declare-fun temp1401_49 () (_ BitVec 64))
(declare-fun temp1401_48 () (_ BitVec 64))
(assert (= temp1401_1 #x0000000000000040))
(assert (= var1380394
   (ite (bvsgt ARGNAME_input_NAMEEND_DIM temp1401_1)
        #x0000000000000001
        #x0000000000000000)))
(assert (= temp1401_2 #x0000000000000000))
(assert (= var1380394 temp1401_2))
(assert (= temp1401_3 #x0000000000000000))
(assert (= var1380420
   (ite (bvsgt ARGNAME_input_NAMEEND_DIM temp1401_3)
        #x0000000000000001
        #x0000000000000000)))
(assert (= temp1401_4 #x0000000000000000))
(assert (= var1380420 temp1401_4))
(assert (= temp1401_6 #x0000000000000000))
(assert (= temp1401_5 temp1401_6))
(assert (= temp1401_7 #x0000000000000000))
(assert (= var1970486 temp1401_7))
(assert (= var2036033 var1970486))
(assert (= temp1401_9 #x0000000000000000))
(assert (= temp1401_8 temp1401_9))
(assert (= temp1401_10 #x0000000000000000))
(assert (= var2887990 temp1401_10))
(assert (= var2953537 var2887990))
(assert (= temp1401_12 #x0000000000000000))
(assert (= temp1401_11 temp1401_12))
(assert (= temp1401_13 #x0000000000000000))
(assert (= var3608886 temp1401_13))
(assert (= var3674433 var3608886))
(assert (= temp1401_14 #x0000000000000001))
(assert (= var2690916 temp1401_14))
(assert (= temp1401_16 #x0000000000000001))
(assert (= temp1401_15 temp1401_16))
(assert (= temp1401_18 #xffffffffffffffff))
(assert (= temp1401_17 temp1401_18))
(assert (= temp1401_20 #x0000000000000000))
(assert (= temp1401_19 temp1401_20))
(assert (= temp1401_22 #xffffffffffffffff))
(assert (= temp1401_21 temp1401_22))
(assert (= temp1401_24 #x0000000000000001))
(assert (= temp1401_23 temp1401_24))
(assert (= temp1401_26 #x0000000000000000))
(assert (= temp1401_25 temp1401_26))
(assert (= temp1401_28 #xfffffffffffffffe))
(assert (= temp1401_27 temp1401_28))
(assert (= temp1401_30 #x0000000000000001))
(assert (= temp1401_29 temp1401_30))
(assert (= temp1401_32 #xffffffffffffffff))
(assert (= temp1401_31 temp1401_32))
(assert (= temp1401_34 #x0000000000000002))
(assert (= temp1401_33 temp1401_34))
(assert (= temp1401_35 #x0000000000000001))
(assert (or false (= var2694149 temp1401_35)))
(assert (= temp1401_37 #x0000000000000001))
(assert (= temp1401_36 temp1401_37))
(assert (= temp1401_39 #x0000000000000002))
(assert (= temp1401_38 temp1401_39))
(assert (= temp1401_41 #x0000000000000000))
(assert (= temp1401_40 temp1401_41))
(assert (= temp1401_43 #x0000000000000001))
(assert (= temp1401_42 temp1401_43))
(assert (= temp1401_45 #xffffffffffffffff))
(assert (= temp1401_44 temp1401_45))
(assert (= temp1401_47 #xfffffffffffffffe))
(assert (= temp1401_46 temp1401_47))
(assert (= temp1401_49 #xffffffffffffffff))
(assert (= temp1401_48 temp1401_49))
(model-add temp1401_1 () (_ BitVec 64) #x0000000000000040)
(model-add temp1401_2 () (_ BitVec 64) #x0000000000000000)
(model-add var1380394 () (_ BitVec 64) #x0000000000000000)
(model-del k!0)
(model-add ARGNAME_input_NAMEEND_DIM
           ()
           (_ BitVec 64)
           (ite (or k!0 (= #x0000000000000040 #x7fffffffffffffff))
                #x0000000000000040
                (bvadd #x0000000000000040 #x0000000000000001)))






